c WARNING: for repeatability, setting FPU to use double precision
d VARIABLES            62824        
d CONSTRAINTS          268297       
c ============================[ Problem Statistics ]=============================
c |                                                                             |
c |  Number of variables:         62824                                         |
c |  Number of clauses:          268297                                         |
c |  Parse time:                   0.04 s                                       |
c |                                                                             |
c ============================[ Search Statistics ]==============================
c | Conflicts |          ORIGINAL         |          LEARNT          | Progress |
c |           |    Vars  Clauses Literals |    Limit  Clauses Lit/Cl |          |
c ===============================================================================
c |       100 |   50243   232417   566060 |    85219      100     46 | 20.026 % |
c |       250 |   50243   232417   566060 |    93741      250     86 | 20.026 % |
c |       475 |   50243   232417   566060 |   103115      475    115 | 20.026 % |
c |       812 |   50243   232417   566060 |   113427      812    121 | 20.026 % |
c |      1318 |   50243   232417   566060 |   124769     1318    141 | 20.026 % |
c |      2077 |   50243   232417   566060 |   137246     2077    133 | 20.026 % |
c |      3216 |   50243   232417   566060 |   150971     3216    181 | 20.026 % |
c |      4924 |   50243   232417   566060 |   166068     4924    161 | 20.026 % |
c |      7486 |   50239   232398   566014 |   182675     7485    157 | 20.032 % |
c |     11330 |   50239   232398   566014 |   200943    11329    157 | 20.032 % |
c |     17096 |   50239   232398   566014 |   221037    17095    157 | 20.032 % |
c |     25745 |   50215   232279   565728 |   243141    25742    170 | 20.070 % |
c |     38719 |   50215   232279   565728 |   267455    38716    179 | 20.070 % |
c |     58180 |   50215   232279   565728 |   294201    58177    187 | 20.070 % |
c |     87372 |   50215   232279   565728 |   323621    87369    182 | 20.070 % |
c |    131161 |   50215   232279   565728 |   355983   131158    176 | 20.070 % |
c |    196845 |   50215   232279   565728 |   391581   196842    180 | 20.070 % |
c |    295371 |   50215   232279   565728 |   430739   295368    186 | 20.070 % |
c |    443160 |   50215   232279   565728 |   473813   443157    179 | 20.070 % |
c |    664843 |   50215   232279   565728 |   521195   187826    149 | 20.070 % |
c |    997368 |   50215   232279   565728 |   573314   520351    154 | 20.070 % |
c |   1496156 |   50215   232279   565728 |   630646   441678    150 | 20.070 % |
c |   2244338 |   50215   232279   565728 |   693710   574895    144 | 20.070 % |
c |   3366612 |   50215   232279   565728 |   763081   309708    137 | 20.070 % |
c ===============================================================================
c restarts              : 6119
c conflicts             : 3382177        (1899 /sec)
c decisions             : 7157359        (0.00 % random) (4019 /sec)
c propagations          : 3536477574     (1985831 /sec)
c conflict literals     : 516870485      (39.63 % deleted)
d RESTARTS             6119
d FAILURES             3382177      
d NODES                7157359      
d BACKTRACKS           7157359      
d PROPAGATIONS         3536477574   
d NOGOODSIZE           152.82 
d MEMORY               708.00 
d TIME                 1780.86 

s UNKNOWN
